
******************************************************************************
This program contains Ipopt, a library for large-scale nonlinear optimization.
 Ipopt is released as open source code under the Eclipse Public License (EPL).
         For more information visit http://projects.coin-or.org/Ipopt

This version of Ipopt was compiled from source code available at
    https://github.com/IDAES/Ipopt as part of the Institute for the Design of
    Advanced Energy Systems Process Systems Engineering Framework (IDAES PSE
    Framework) Copyright (c) 2018-2019. See https://github.com/IDAES/idaes-pse.

This version of Ipopt was compiled using HSL, a collection of Fortran codes
    for large-scale scientific computation.  All technical papers, sales and
    publicity material resulting from use of the HSL codes within IPOPT must
    contain the following acknowledgement:
        HSL, a collection of Fortran codes for large-scale scientific
        computation. See http://www.hsl.rl.ac.uk.
******************************************************************************

This is Ipopt version 3.13.2, running with linear solver ma27.

Number of nonzeros in equality constraint Jacobian...:     1020
Number of nonzeros in inequality constraint Jacobian.:        0
Number of nonzeros in Lagrangian Hessian.............:     1161

Total number of variables............................:      405
                     variables with only lower bounds:      108
                variables with lower and upper bounds:      243
                     variables with only upper bounds:        0
Total number of equality constraints.................:      402
Total number of inequality constraints...............:        0
        inequality constraints with only lower bounds:        0
   inequality constraints with lower and upper bounds:        0
        inequality constraints with only upper bounds:        0

iter    objective    inf_pr   inf_du lg(mu)  ||d||  lg(rg) alpha_du alpha_pr  ls
   0  0.0000000e+00 1.50e+00 1.15e-14  -1.0 0.00e+00    -  0.00e+00 0.00e+00   0
   1  2.8292840e-02 1.50e+00 6.41e+03  -1.0 3.67e+06    -  2.56e-02 3.42e-03h  3
   2  5.9664440e-02 1.50e+00 7.51e+03  -1.0 4.62e+06    -  4.46e-02 1.47e-03h  4
   3  1.6386826e-01 1.50e+00 1.12e+04  -1.0 5.71e+06    -  3.68e-02 3.08e-03h  3
   4  5.3392913e-01 1.49e+00 1.99e+04  -1.0 6.51e+06    -  3.17e-02 5.71e-03h  2
   5  2.2156116e+00 1.44e+00 2.95e+04  -1.0 5.73e+06    -  2.65e-02 1.16e-02h  1
   6  3.5919451e+00 1.42e+00 2.91e+04  -1.0 8.36e+06    -  1.06e-02 4.97e-03h  1
   7  3.6002821e+00 1.42e+00 2.90e+04  -1.0 3.52e+07    -  1.47e-03 9.50e-05h  1
   8  3.6655418e+00 1.42e+00 4.35e+04  -1.0 7.46e+07    -  4.88e-04 7.12e-04h  1
   9  4.5932231e+00 1.41e+00 1.61e+05  -1.0 6.61e+07    -  1.77e-04 1.21e-03h  1
iter    objective    inf_pr   inf_du lg(mu)  ||d||  lg(rg) alpha_du alpha_pr  ls
  10  5.3526640e+00 1.41e+00 1.88e+05  -1.0 3.80e+07    -  4.96e-04 6.93e-04h  4
  11  5.6794849e+00 1.41e+00 1.84e+05  -1.0 2.52e+07    -  9.87e-04 3.24e-04h  8
  12  6.0390922e+00 1.41e+00 1.78e+05  -1.0 2.50e+07    -  1.39e-03 3.52e-04h  8
  13  6.4495317e+00 1.41e+00 1.71e+05  -1.0 2.44e+07    -  2.01e-03 3.93e-04h  8
  14  6.9244110e+00 1.41e+00 1.63e+05  -1.0 2.38e+07    -  2.61e-03 4.44e-04h  8
  15  7.4791719e+00 1.41e+00 1.55e+05  -1.0 2.33e+07    -  2.84e-03 5.04e-04h  8
  16  8.1294909e+00 1.40e+00 1.46e+05  -1.0 2.28e+07    -  3.18e-05 5.74e-04h  8
  17  8.8694517e+00 1.40e+00 1.38e+05  -1.0 2.21e+07    -  3.78e-07 6.34e-04f  8
  18r 8.8694517e+00 1.40e+00 9.99e+02   0.1 0.00e+00  -4.0 0.00e+00 4.01e-07R  4
  19r 8.8695407e+00 1.44e+00 9.92e+02   0.1 2.46e+03    -  4.50e-03 6.95e-03f  1
iter    objective    inf_pr   inf_du lg(mu)  ||d||  lg(rg) alpha_du alpha_pr  ls
  20r 8.8697529e+00 1.44e+00 9.83e+02   0.1 8.56e+02    -  2.32e-02 9.27e-03f  1
  21r 8.8702883e+00 1.42e+00 9.66e+02   0.1 6.07e+02    -  3.38e-02 1.70e-02f  1
  22r 8.8722858e+00 1.36e+00 9.10e+02   0.1 9.90e+02    -  2.69e-02 5.78e-02f  1
  23r 8.8735845e+00 1.33e+00 8.91e+02   0.1 1.16e+03    -  2.16e-02 2.87e-02f  1
  24r 8.8735845e+00 1.30e+00 8.37e+02   0.1 8.56e+00   0.0 6.60e-02 5.32e-02f  1
  25r 8.8735845e+00 1.28e+00 8.35e+02   0.1 9.75e+01  -0.5 2.68e-02 5.21e-03f  1
  26r 8.8735845e+00 1.21e+00 7.60e+02   0.1 2.17e+01  -0.1 8.49e-02 1.27e-01f  1
  27  1.9935845e+01 1.13e+00 2.36e+04  -1.0 2.37e+07    -  1.48e-02 8.23e-03h  1
  28  2.0107673e+01 1.13e+00 2.36e+04  -1.0 2.84e+07    -  2.51e-02 8.91e-05h  1
  29  2.0247670e+01 1.13e+00 2.21e+04  -1.0 4.14e+07    -  1.04e-02 4.26e-04h  1
iter    objective    inf_pr   inf_du lg(mu)  ||d||  lg(rg) alpha_du alpha_pr  ls
  30  3.8574251e+01 1.11e+00 2.67e+06  -1.0 3.41e+07    -  1.11e-02 7.01e-03h  1
  31  8.4788878e+01 1.10e+00 9.40e+06  -1.0 8.11e+07    -  7.76e-03 7.16e-03h  2
  32  1.0764221e+02 1.10e+00 9.55e+06  -1.0 3.33e+07    -  4.55e-02 4.04e-03h  3
  33  1.3428705e+02 1.09e+00 1.19e+07  -1.0 1.74e+07    -  8.56e-02 5.83e-03h  3
  34  1.6486893e+02 1.07e+00 1.71e+07  -1.0 1.25e+07    -  1.15e-01 8.56e-03h  3
  35  1.8193011e+02 1.06e+00 2.44e+07  -1.0 1.17e+07    -  1.34e-01 5.78e-03h  4
  36  1.9994585e+02 1.05e+00 4.83e+07  -1.0 1.28e+07    -  2.07e-01 6.30e-03h  4
  37  2.2033232e+02 1.04e+00 1.16e+08  -1.0 1.48e+07    -  2.40e-01 6.95e-03h  4
  38  2.4247553e+02 1.03e+00 2.79e+08  -1.0 1.71e+07    -  2.53e-01 7.36e-03h  4
  39  2.6697868e+02 1.01e+00 9.31e+08  -1.0 1.85e+07    -  1.24e-01 8.10e-03h  4
iter    objective    inf_pr   inf_du lg(mu)  ||d||  lg(rg) alpha_du alpha_pr  ls
  40  3.2920667e+02 9.60e-01 3.94e+09  -1.0 2.21e+07    -  2.98e-01 1.72e-02h  3
  41  9.0638734e+02 3.44e+00 4.12e+10  -1.0 2.97e+07    -  6.42e-02 7.95e-02w  1
  42  1.0659851e+03 3.57e+00 5.14e+10  -1.0 4.52e+07  -2.7 2.66e-02 9.79e-03w  1
  43  1.0656122e+03 4.07e+00 3.06e+11  -1.0 6.16e+06  -0.4 7.75e-03 1.45e-02w  1
  44  4.3295332e+02 8.94e-01 6.48e+09  -1.0 1.11e+08  -0.0 6.42e-02 1.99e-02h  2
  45  6.4411274e+02 8.06e-01 7.76e+09  -1.0 4.19e+07    -  2.09e-01 2.29e-02h  3
  46  1.1624418e+03 6.87e-01 7.99e+09  -1.0 6.46e+07    -  5.83e-02 2.59e-02h  3
  47  1.8515847e+03 6.53e-01 8.11e+09  -1.0 1.17e+08    -  2.68e-01 1.38e-02h  4
  48  1.8546725e+03 6.47e-01 8.73e+09  -1.0 1.05e+07  -0.5 6.30e-03 1.32e-03h  4
  49  2.0303282e+03 6.42e-01 1.04e+10  -1.0 1.06e+08    -  9.19e-03 3.28e-03h  4
iter    objective    inf_pr   inf_du lg(mu)  ||d||  lg(rg) alpha_du alpha_pr  ls
  50  2.1601847e+03 6.38e-01 1.13e+10  -1.0 1.03e+08    -  1.50e-04 2.40e-03h  4
  51  2.2566970e+03 6.35e-01 1.19e+10  -1.0 9.62e+07    -  3.91e-06 1.85e-03h  4
  52  2.2573326e+03 6.35e-01 1.19e+10  -1.0 4.81e+06  -1.0 4.75e-06 4.26e-04h  5
  53  2.2581829e+03 6.34e-01 1.19e+10  -1.0 8.00e+06  -1.4 5.77e-04 4.18e-04h  5
  54  2.2793756e+03 6.26e-01 2.09e+10  -1.0 1.13e+07  -1.9 8.51e-02 6.62e-03w  1
  55  2.2794974e+03 6.26e-01 2.09e+10  -1.0 9.91e+06  -1.5 1.12e-01 4.71e-05w  1
MA27BD returned iflag=-4 and requires more memory.
 Increase liw from 16265 to 32530 and la from 18975 to 38074 and factorize again.
  56  1.1664241e+03 3.56e+00 3.76e+10  -1.0 5.73e+08    -  5.36e-05 4.34e-03w  1
  57  2.2594905e+03 6.34e-01 1.19e+10  -1.0 1.44e+07  -2.0 8.51e-02 4.14e-04h  4
  58  2.2601364e+03 6.33e-01 1.19e+10  -1.0 9.26e+06  -1.5 1.66e-01 2.79e-04h  5
  59  2.2612846e+03 6.33e-01 1.19e+10  -1.0 1.24e+07  -2.0 1.22e-01 2.94e-04h  3
iter    objective    inf_pr   inf_du lg(mu)  ||d||  lg(rg) alpha_du alpha_pr  ls
  60  2.2630926e+03 6.33e-01 1.31e+10  -1.0 3.98e+07  -2.5 3.12e-05 8.24e-04h  5
  61  2.2479836e+03 6.31e-01 1.34e+10  -1.0 9.61e+07  -3.0 3.44e-04 3.60e-04f  5
  62  2.2270448e+03 6.31e-01 1.33e+10  -1.0 8.48e+08  -3.5 1.69e-04 4.42e-05f  6
  63  2.2118280e+03 6.29e-01 1.36e+10  -1.0 8.03e+07  -3.0 1.17e-03 4.15e-04f  5
  64  2.1921492e+03 6.28e-01 1.35e+10  -1.0 4.23e+08  -3.5 1.84e-03 8.44e-05f  6
  65  2.1868969e+03 6.28e-01 1.35e+10  -1.0 3.19e+08  -3.1 6.24e-04 2.87e-05f  7
  66  2.1176145e+03 1.41e+01 1.98e+11  -1.0 5.13e+07  -2.7 1.01e-02 9.66e-03f  1
  67  2.1255711e+03 1.38e+01 1.76e+12  -1.0 7.39e+06  -0.4 8.84e-02 2.12e-02h  2
  68  2.1270010e+03 1.38e+01 1.80e+12  -1.0 5.38e+06   0.0 1.32e-01 2.69e-03h  3
  69  2.1286418e+03 1.37e+01 1.86e+12  -1.0 5.26e+06  -0.5 8.65e-02 3.67e-03h  2
iter    objective    inf_pr   inf_du lg(mu)  ||d||  lg(rg) alpha_du alpha_pr  ls
  70  1.9754984e+03 1.37e+01 1.85e+12  -1.0 7.85e+07    -  2.23e-01 3.95e-03f  1
  71  1.9613429e+03 1.37e+01 1.85e+12  -1.0 3.13e+08    -  3.16e-03 9.11e-05f  1
  72  1.9251604e+03 1.37e+01 1.84e+12  -1.0 6.33e+08    -  2.42e-03 1.16e-04f  1
  73  1.6387264e+03 1.37e+01 1.07e+12  -1.0 8.82e+08    -  6.84e-03 6.98e-04f  1
  74  1.4299859e+03 1.37e+01 5.34e+12  -1.0 1.07e+09    -  1.80e-02 4.66e-04f  1
  75  1.8665202e+03 1.36e+01 4.09e+13  -1.0 1.57e+08    -  3.90e-03 6.29e-03h  4
  76  1.9267712e+03 1.35e+01 3.83e+13  -1.0 1.77e+07    -  2.99e-02 6.54e-03h  3
  77  1.9939391e+03 1.34e+01 3.62e+13  -1.0 2.21e+07    -  1.98e-02 5.89e-03h  3
  78  2.0729128e+03 1.34e+01 3.44e+13  -1.0 2.98e+07    -  1.21e-02 5.17e-03h  3
  79  2.1832074e+03 1.33e+01 3.23e+13  -1.0 4.88e+07    -  4.94e-03 4.43e-03h  3
iter    objective    inf_pr   inf_du lg(mu)  ||d||  lg(rg) alpha_du alpha_pr  ls
  80  2.3186399e+03 1.32e+01 3.16e+13  -1.0 6.65e+07    -  1.32e-02 3.74e-03h  3
  81  2.5321546e+03 1.32e+01 3.16e+13  -1.0 1.23e+08    -  8.31e-03 3.10e-03h  3
  82  2.5513561e+03 1.32e+01 3.16e+13  -1.0 9.42e+08    -  1.28e-03 3.55e-05h  7
  83  2.5708884e+03 1.32e+01 3.16e+13  -1.0 1.04e+09    -  1.14e-03 3.24e-05h  7
  84  3.3029984e+03 1.32e+01 3.16e+13  -1.0 1.15e+09    -  1.02e-03 1.02e-03s 13
  85r 3.3029984e+03 1.32e+01 1.00e+03   1.1 0.00e+00  -1.0 0.00e+00 0.00e+00R  1
  86r 3.3029982e+03 6.91e+00 1.01e+03   1.1 3.43e+03    -  6.27e-03 6.11e-03f  1
  87r 3.3029982e+03 6.91e+00 9.99e+02   0.8 0.00e+00    -  0.00e+00 3.63e-07R  3
  88r 3.3029978e+03 9.79e-01 9.97e+02   0.8 3.25e+03    -  1.21e-03 2.02e-03f  1
  89  3.3028844e+03 9.78e-01 4.71e+02  -1.0 2.94e+06    -  7.37e-02 1.55e-04h  1
iter    objective    inf_pr   inf_du lg(mu)  ||d||  lg(rg) alpha_du alpha_pr  ls
  90  3.3005567e+03 9.78e-01 4.93e+04  -1.0 2.13e+07    -  1.78e-02 1.69e-04f  1
  91  3.2077180e+03 1.17e+00 9.38e+06  -1.0 2.14e+07    -  7.79e-03 6.61e-03f  1
  92  3.0180388e+03 5.46e+00 1.81e+07  -1.0 4.90e+07    -  7.78e-03 5.99e-03f  1
  93  3.0120562e+03 6.15e+00 2.95e+09  -1.0 1.18e+08    -  7.96e-03 8.05e-05f  1
  94  3.0134957e+03 6.11e+00 2.90e+09  -1.0 1.11e+07  -1.4 1.07e-05 4.20e-04h  4
  95  3.0134951e+03 6.11e+00 2.90e+09  -1.0 1.38e+07  -1.9 4.08e-03 1.78e-07h  1
  96  3.0016348e+03 1.08e+01 3.73e+09  -1.0 1.58e+07  -2.4 3.56e-03 5.91e-03f  2
  97  2.9990325e+03 1.07e+01 3.13e+09  -1.0 2.60e+07  -2.9 1.04e-02 2.41e-03f  2
  98  2.9990963e+03 1.07e+01 3.13e+09  -1.0 2.35e+07  -2.4 5.18e-04 8.56e-05h  6
  99  2.9975250e+03 1.07e+01 2.89e+09  -1.0 8.95e+06  -2.0 3.85e-03 4.17e-04f  2
iter    objective    inf_pr   inf_du lg(mu)  ||d||  lg(rg) alpha_du alpha_pr  ls
 100r 2.9975250e+03 1.07e+01 1.00e+03   1.0 0.00e+00  -1.6 0.00e+00 4.24e-07R  4
 101r 2.9975250e+03 5.42e+00 1.18e+03   1.0 3.65e+03    -  7.68e-03 2.18e-03f  1
 102  2.9975158e+03 5.42e+00 9.11e+04  -1.0 5.28e+07    -  2.55e-02 2.78e-07h  1
 103  2.6327048e+03 5.40e+00 8.99e+06  -1.0 1.37e+08    -  2.22e-02 4.39e-03f  1
 104  9.6668081e+02 3.90e+01 6.38e+09  -1.0 1.14e+08    -  1.45e-03 3.17e-02F  1
 105  9.6677488e+02 1.26e+02 6.82e+09  -1.0 9.82e+06  -1.2 2.77e-06 2.58e-04f  1
 106  9.6677416e+02 3.90e+01 5.39e+11  -1.0 2.01e+07   2.0 8.03e-05 5.74e-07h  4
 107  9.6677416e+02 3.90e+01 1.69e+10  -1.0 5.31e-03  13.8 1.48e-01 4.18e-06h 11
 108r 9.6677416e+02 3.90e+01 9.99e+02   1.6 0.00e+00    -  0.00e+00 1.17e-07R  2
 109r 9.6677428e+02 3.00e+01 2.91e+10   1.6 9.00e+03    -  4.44e-03 2.36e-03f  1
iter    objective    inf_pr   inf_du lg(mu)  ||d||  lg(rg) alpha_du alpha_pr  ls
 110r 9.6677428e+02 3.00e+01 9.99e+02   1.5 0.00e+00    -  0.00e+00 3.15e-07R  4
 111r 9.6677449e+02 1.18e+02 9.95e+02   1.5 4.62e+03    -  5.25e-04 4.16e-03f  1
 112r 9.6677434e+02 1.82e+01 9.93e+02   1.5 5.88e+03    -  3.43e-03 1.82e-03f  1
 113  9.6635584e+02 1.82e+01 8.67e+03  -1.0 1.18e+07    -  3.44e-03 3.66e-04H  1
 114  9.6260169e+02 1.82e+01 5.16e+09  -1.0 1.51e+07    -  1.88e-03 2.32e-03f  1
 115  9.6260169e+02 1.82e+01 1.32e+11  -1.0 8.49e-05  14.7 9.90e-01 1.00e+00h  1
 116  9.6260169e+02 1.82e+01 8.29e+10  -1.0 2.86e-03  13.7 9.90e-01 1.00e+00h  1
 117  9.6260169e+02 1.82e+01 2.28e+11  -1.0 2.78e-02  12.8 9.90e-01 1.00e+00h  1
 118  9.5992783e+02 1.88e+01 3.37e+22  -1.0 9.73e+06  12.3 5.68e-06 4.94e-03f  1
 119  9.5992638e+02 1.88e+01 3.37e+22  -1.0 6.79e+06  11.8 3.52e-03 4.36e-06h  2
iter    objective    inf_pr   inf_du lg(mu)  ||d||  lg(rg) alpha_du alpha_pr  ls
 120r 9.5992638e+02 1.88e+01 9.99e+02   1.3 0.00e+00  11.3 0.00e+00 2.74e-07R  9
 121r 9.5992607e+02 1.64e+01 9.97e+02   1.3 8.56e+03    -  5.74e-03 2.10e-03f  1
 122  9.5048708e+02 9.41e+01 1.07e+03  -1.0 8.45e+06    -  1.51e-02 4.93e-03f  1
 123  9.4162762e+02 9.38e+01 1.06e+03  -1.0 1.06e+07    -  6.30e-03 4.03e-03f  1
 124  9.4162762e+02 9.30e+01 9.11e+09  -1.0 6.77e-01  10.4 6.27e-01 5.54e-01h  1
 125  9.4049754e+02 1.73e+03 6.11e+19  -1.0 3.75e+06   9.9 1.30e-06 5.98e-03f  1
 126  9.3816238e+02 1.71e+03 1.60e+22  -1.0 3.80e+06   9.4 1.21e-02 1.18e-02f  1
 127  9.3806301e+02 1.71e+03 1.60e+22  -1.0 8.90e+07   9.9 1.55e-03 5.67e-05f  2
 128  9.3801151e+02 1.71e+03 1.60e+22  -1.0 6.19e+06  10.3 8.85e-03 3.70e-04h  1
 129r 9.3801151e+02 1.71e+03 9.99e+02   3.2 0.00e+00   9.8 0.00e+00 3.64e-08R  2
iter    objective    inf_pr   inf_du lg(mu)  ||d||  lg(rg) alpha_du alpha_pr  ls
 130r 9.3801149e+02 7.49e+02 9.99e+02   3.2 1.67e+06    -  1.34e-04 1.01e-03f  1
 131  9.3700771e+02 7.49e+02 2.31e+01  -1.0 9.70e+06    -  2.07e-02 3.41e-04f  1
 132  9.0726210e+02 7.48e+02 2.31e+01  -1.0 4.27e+08    -  1.26e-03 2.18e-04f  1
 133  7.2671824e+02 7.46e+02 1.98e+06  -1.0 4.38e+08    -  1.40e-03 1.41e-03f  1
 134  7.7011088e+02 7.43e+02 1.97e+06  -1.0 2.04e+08    -  1.55e-04 4.36e-03h  1
 135  7.7008815e+02 7.43e+02 7.99e+13  -1.0 2.28e+06   9.3 1.21e-06 6.39e-05f  3
 136  7.6875992e+02 7.40e+02 8.59e+16  -1.0 2.28e+06   8.8 8.05e-05 3.74e-03H  1
 137  7.6875805e+02 7.40e+02 8.59e+16  -1.0 2.33e+06   8.4 3.11e-02 5.24e-06h  4
 138r 7.6875805e+02 7.40e+02 9.99e+02   2.9 0.00e+00   7.9 0.00e+00 3.27e-07R  8
 139r 7.6875801e+02 2.93e+02 9.99e+02   2.9 6.87e+05    -  7.43e-05 1.07e-03f  1
iter    objective    inf_pr   inf_du lg(mu)  ||d||  lg(rg) alpha_du alpha_pr  ls
 140  7.6566377e+02 2.92e+02 2.29e+01  -1.0 3.51e+06    -  4.70e-03 2.37e-03f  1
 141  7.6563052e+02 2.92e+02 2.30e+01  -1.0 1.05e+07    -  5.53e-02 2.79e-05H  1
 142  7.6553801e+02 2.92e+02 7.67e+01  -1.0 3.57e+08    -  4.67e-03 1.92e-04h  2
 143  7.6556173e+02 2.92e+02 7.57e+02  -1.0 6.80e+08    -  5.43e-03 6.81e-05h  3
 144  7.6713591e+02 2.92e+02 9.16e+02  -1.0 8.18e+08    -  5.46e-04 7.64e-05h  2
 145  7.6745506e+02 2.92e+02 1.93e+03  -1.0 1.04e+09    -  1.04e-03 1.43e-06h  7
 146  7.7131763e+02 2.92e+02 2.85e+03  -1.0 2.42e+09    -  4.61e-04 6.25e-06h  7
 147r 7.7131763e+02 2.92e+02 1.00e+03   2.5 0.00e+00    -  0.00e+00 3.73e-07R 12
 148r 7.7131762e+02 9.61e+01 9.97e+02   2.5 2.35e+05    -  2.56e-03 1.23e-03f  1
 149  7.7131887e+02 9.61e+01 5.45e+02  -1.0 2.51e+07    -  6.46e-04 1.17e-06h  1
iter    objective    inf_pr   inf_du lg(mu)  ||d||  lg(rg) alpha_du alpha_pr  ls
 150r 7.7131887e+02 9.61e+01 9.99e+02   2.0 0.00e+00    -  0.00e+00 3.68e-07R  9
 151r 7.7131883e+02 9.75e+01 9.97e+02   2.0 8.16e+04    -  3.44e-03 1.17e-03f  1
 152r 7.7131883e+02 5.06e+01 3.69e+03   2.0 8.62e+00   2.0 3.05e-01 1.10e-01f  1
 153  7.7044018e+02 5.05e+01 4.50e+06  -1.0 2.23e+06    -  1.18e-03 1.37e-03f  1
 154  6.9440549e+02 1.65e+02 1.94e+08  -1.0 2.14e+06    -  9.58e-04 1.13e-01f  1
 155  6.9440549e+02 4.48e+01 1.55e+16  -1.0 1.39e+00  11.5 3.38e-01 2.36e-01h  1
WARNING: Problem in step computation; switching to emergency mode.
 156r 6.9440549e+02 4.48e+01 9.99e+02   1.7 0.00e+00  18.8 0.00e+00 0.00e+00R  1
 157r 6.9440545e+02 3.55e+01 9.98e+02   1.7 1.93e+04    -  2.41e-03 4.81e-04f  1
 158  6.9430277e+02 3.55e+01 4.53e+09  -1.0 8.98e+07    -  4.44e-05 8.13e-05h  1
 159  6.9430277e+02 3.55e+01 1.09e+10  -1.0 1.11e-01  11.5 9.90e-01 6.21e-03h  2
iter    objective    inf_pr   inf_du lg(mu)  ||d||  lg(rg) alpha_du alpha_pr  ls
 160  6.9490966e+02 3.55e+01 2.35e+08  -1.0 2.84e+11    -  8.30e-09 8.30e-09s  2
 161r 6.9490966e+02 3.55e+01 1.00e+03   1.5 0.00e+00    -  0.00e+00 0.00e+00R  1
 162r 6.9490958e+02 1.57e+02 2.26e+10   1.5 1.86e+04    -  2.62e-03 8.76e-04f  1
WARNING: Problem in step computation; switching to emergency mode.
 163r 6.9490958e+02 1.57e+02 2.26e+10   1.5 1.86e+04  19.8 0.00e+00 0.00e+00R  1
WARNING: Problem in step computation; switching to emergency mode.
Restoration phase is called at point that is almost feasible,
  with constraint violation 0.000000e+00. Abort.
Restoration phase in the restoration phase failed.

Number of Iterations....: 163

                                   (scaled)                 (unscaled)
Objective...............:   6.9490958232884554e+02    6.9490958232884554e+02
Dual infeasibility......:   2.2601383303582905e+10    2.2601383303582905e+10
Constraint violation....:   1.5662333589610515e+02    1.5662333589610515e+02
Complementarity.........:   7.1667746128215949e+04    7.1667746128215949e+04
Overall NLP error.......:   2.2601383303582905e+10    2.2601383303582905e+10


Number of objective function evaluations             = 567
Number of objective gradient evaluations             = 153
Number of equality constraint evaluations            = 567
Number of inequality constraint evaluations          = 0
Number of equality constraint Jacobian evaluations   = 176
Number of inequality constraint Jacobian evaluations = 0
Number of Lagrangian Hessian evaluations             = 164
Total CPU secs in IPOPT (w/o function evaluations)   =      0.511
Total CPU secs in NLP function evaluations           =      5.301

EXIT: Restoration Failed!
